c is-sat
p cnf 8 54
-5 -3 -7 0
2 -8 -1 0
-1 8 2 0
1 3 -7 0
8 -5 -3 0
-3 -1 -5 0
-2 -7 3 0
-2 -7 -5 0
-2 7 -3 0
-2 -5 1 0
6 -4 8 0
-7 -4 8 0
-7 -3 -1 0
-2 -1 -3 0
-2 -5 -8 0
-7 5 6 0
-6 -7 4 0
-6 -7 -5 0
-4 -3 -6 0
-5 -6 8 0
-4 2 -1 0
3 5 -1 0
-8 3 -4 0
-2 -6 5 0
-2 -8 7 0
-1 7 2 0
7 8 -1 0
-5 -7 4 0
-1 3 7 0
2 -7 -1 0
-4 5 -3 0
-8 -2 -3 0
-4 -8 -1 0
-2 -4 -3 0
-2 4 -7 0
3 -1 -6 0
6 -2 -5 0
-6 1 -7 0
-3 -7 -1 0
-8 -5 -2 0
-6 8 7 0
-7 -8 3 0
-1 -7 4 0
-4 5 -6 0
6 3 -4 0
-6 5 -1 0
5 -8 -4 0
-2 -7 -8 0
-8 4 -7 0
-4 8 7 0
8 -3 5 0
-6 7 1 0
-3 -4 8 0
3 -8 -7 0
